Grasp exp. instance_n_25_m_5_id_5.lp tipoLifted 0 szPool 5 nIteration 50 alpha 0.8 
Academic license - for non-commercial use only
Read LP format model from file ../input/instancesGenerated/instance_n_25_m_5_id_5.lp
Reading time = 0.00 seconds
: 5 rows, 25 columns, 125 nonzeros
Optimize a model with 5 rows, 25 columns and 125 nonzeros
Variable types: 0 continuous, 25 integer (25 binary)
Coefficient statistics:
  Matrix range     [1e+00, 1e+01]
  Objective range  [1e+00, 1e+01]
  Bounds range     [1e+00, 1e+00]
  RHS range        [5e+01, 7e+01]
Found heuristic solution: objective 66.0000000

Explored 0 nodes (0 simplex iterations) in 0.00 seconds
Thread count was 1 (of 8 available processors)

Solution count 1: 66 
No other solutions better than 0

Solution limit reached
Best objective 6.600000000000e+01, best bound -, gap -
C_1:	 7.00 x_1  = 1.000000 + 8.00 x_2  = 0.000000 + 3.00 x_3  = 0.953878 + 5.00 x_4  = 1.000000 + 2.00 x_5  = 1.000000 + 3.00 x_6  = 1.000000 + 6.00 x_7  = 0.000000 + 4.00 x_8  = 1.000000 + 2.00 x_9  = 0.000000 + 7.00 x_10  = 0.000000 + 3.00 x_11  = 0.000000 + 8.00 x_12  = 0.571279 + 1.00 x_13  = 1.000000 + 2.00 x_14  = 0.000000 + 1.00 x_15  = 0.000000 + 1.00 x_16  = 0.670860 + 5.00 x_17  = 0.716981 + 9.00 x_18  = 0.000000 + 2.00 x_19  = 0.000000 + 1.00 x_20  = 1.000000 + 1.00 x_21  = 1.000000 + 9.00 x_22  = 0.000000 + 6.00 x_23  = 1.000000 + 1.00 x_24  = 1.000000 + 4.00 x_25  = 0.000000 <= 50.00
C_2:	 4.00 x_1  = 1.000000 + 9.00 x_2  = 0.000000 + 8.00 x_3  = 0.953878 + 2.00 x_4  = 1.000000 + 6.00 x_5  = 1.000000 + 3.00 x_6  = 1.000000 + 8.00 x_7  = 0.000000 + 5.00 x_8  = 1.000000 + 5.00 x_9  = 0.000000 + 4.00 x_10  = 0.000000 + 8.00 x_11  = 0.000000 + 10.00 x_12  = 0.571279 + 9.00 x_13  = 1.000000 + 2.00 x_14  = 0.000000 + 1.00 x_15  = 0.000000 + 5.00 x_16  = 0.670860 + 6.00 x_17  = 0.716981 + 10.00 x_18  = 0.000000 + 7.00 x_19  = 0.000000 + 7.00 x_20  = 1.000000 + 2.00 x_21  = 1.000000 + 10.00 x_22  = 0.000000 + 3.00 x_23  = 1.000000 + 10.00 x_24  = 1.000000 + 1.00 x_25  = 0.000000 <= 72.00
C_3:	 3.00 x_1  = 1.000000 + 1.00 x_2  = 0.000000 + 9.00 x_3  = 0.953878 + 9.00 x_4  = 1.000000 + 1.00 x_5  = 1.000000 + 4.00 x_6  = 1.000000 + 4.00 x_7  = 0.000000 + 1.00 x_8  = 1.000000 + 2.00 x_9  = 0.000000 + 5.00 x_10  = 0.000000 + 8.00 x_11  = 0.000000 + 4.00 x_12  = 0.571279 + 4.00 x_13  = 1.000000 + 4.00 x_14  = 0.000000 + 1.00 x_15  = 0.000000 + 7.00 x_16  = 0.670860 + 2.00 x_17  = 0.716981 + 10.00 x_18  = 0.000000 + 5.00 x_19  = 0.000000 + 3.00 x_20  = 1.000000 + 2.00 x_21  = 1.000000 + 1.00 x_22  = 0.000000 + 8.00 x_23  = 1.000000 + 1.00 x_24  = 1.000000 + 7.00 x_25  = 0.000000 <= 53.00
C_4:	 6.00 x_1  = 1.000000 + 2.00 x_2  = 0.000000 + 6.00 x_3  = 0.953878 + 8.00 x_4  = 1.000000 + 3.00 x_5  = 1.000000 + 6.00 x_6  = 1.000000 + 10.00 x_7  = 0.000000 + 5.00 x_8  = 1.000000 + 6.00 x_9  = 0.000000 + 8.00 x_10  = 0.000000 + 7.00 x_11  = 0.000000 + 10.00 x_12  = 0.571279 + 1.00 x_13  = 1.000000 + 7.00 x_14  = 0.000000 + 1.00 x_15  = 0.000000 + 7.00 x_16  = 0.670860 + 4.00 x_17  = 0.716981 + 6.00 x_18  = 0.000000 + 10.00 x_19  = 0.000000 + 8.00 x_20  = 1.000000 + 8.00 x_21  = 1.000000 + 6.00 x_22  = 0.000000 + 1.00 x_23  = 1.000000 + 7.00 x_24  = 1.000000 + 2.00 x_25  = 0.000000 <= 72.00
C_5:	 3.00 x_1  = 1.000000 + 8.00 x_2  = 0.000000 + 2.00 x_3  = 0.953878 + 2.00 x_4  = 1.000000 + 10.00 x_5  = 1.000000 + 1.00 x_6  = 1.000000 + 7.00 x_7  = 0.000000 + 3.00 x_8  = 1.000000 + 6.00 x_9  = 0.000000 + 6.00 x_10  = 0.000000 + 8.00 x_11  = 0.000000 + 4.00 x_12  = 0.571279 + 5.00 x_13  = 1.000000 + 2.00 x_14  = 0.000000 + 1.00 x_15  = 0.000000 + 5.00 x_16  = 0.670860 + 9.00 x_17  = 0.716981 + 2.00 x_18  = 0.000000 + 7.00 x_19  = 0.000000 + 7.00 x_20  = 1.000000 + 4.00 x_21  = 1.000000 + 4.00 x_22  = 0.000000 + 3.00 x_23  = 1.000000 + 10.00 x_24  = 1.000000 + 5.00 x_25  = 0.000000 <= 62.00
Solution initial: 105.818658 
Number Constraints Used in Cover:5
GRASP Method!
Number cuts repeat: 0
value: 105.818658
Number Constraints Used in Cover:8
GRASP Method!
Number cuts repeat: 0
value: 105.818658
Number Constraints Used in Cover:13
GRASP Method!
Number cuts repeat: 0
value: 105.818658
Number Constraints Used in Cover:18
GRASP Method!
Number cuts repeat: 0
value: 105.818658
Number Constraints Used in Cover:23
GRASP Method!
Number cuts repeat: 0
value: 105.774151
Number Constraints Used in Cover:25
GRASP Method!
Number cuts repeat: 0
value: 105.774151
Number Constraints Used in Cover:30
GRASP Method!
Number cuts repeat: 0
value: 105.774151
Number Constraints Used in Cover:35
GRASP Method!
Number cuts repeat: 0
value: 105.774151
Number Constraints Used in Cover:42
GRASP Method!
Number cuts repeat: 0
value: 105.774151
Number Constraints Used in Cover:46
GRASP Method!
Number cuts repeat: 0
value: 105.774151
Number Constraints Used in Cover:53
GRASP Method!
Number cuts repeat: 0
value: 105.774151
Number Constraints Used in Cover:60
GRASP Method!
Number cuts repeat: 0
value: 105.774151
Number Constraints Used in Cover:67
GRASP Method!
Number cuts repeat: 0
value: 105.774151
Number Constraints Used in Cover:73
GRASP Method!
Number cuts repeat: 0
value: 105.774151
Number Constraints Used in Cover:76
GRASP Method!
Number cuts repeat: 0
value: 105.774151
Number Constraints Used in Cover:84
GRASP Method!
Number cuts repeat: 0
value: 105.774151
Number Constraints Used in Cover:96
GRASP Method!
Number cuts repeat: 0
value: 105.774151
Number Constraints Used in Cover:104
GRASP Method!
Number cuts repeat: 0
value: 105.774151
Number Constraints Used in Cover:112
GRASP Method!
Number cuts repeat: 0
value: 105.774151
Number Constraints Used in Cover:118
GRASP Method!
Number cuts repeat: 0
value: 105.774151
Number Constraints Used in Cover:123
GRASP Method!
Number cuts repeat: 0
value: 105.774151
Number Constraints Used in Cover:134
GRASP Method!
Number cuts repeat: 0
value: 105.774151
Number Constraints Used in Cover:142
GRASP Method!
Number cuts repeat: 0
value: 105.774151
Number Constraints Used in Cover:151
GRASP Method!
Number cuts repeat: 0
value: 105.774151
Number Constraints Used in Cover:161
GRASP Method!
Number cuts repeat: 0
value: 105.774151
Number Constraints Used in Cover:180
GRASP Method!
Number cuts repeat: 0
value: 105.774151
Number Constraints Used in Cover:197
GRASP Method!
Number cuts repeat: 0
value: 105.774151
Number Constraints Used in Cover:210
GRASP Method!
Number cuts repeat: 0
value: 105.774151
Number Constraints Used in Cover:229
GRASP Method!
Number cuts repeat: 0
value: 105.774151
Number Constraints Used in Cover:245
GRASP Method!
Number cuts repeat: 0
value: 105.774151
Number Constraints Used in Cover:253
GRASP Method!
Number cuts repeat: 0
value: 105.774151
Number Constraints Used in Cover:268
GRASP Method!
Number cuts repeat: 0
value: 105.774151
Number Constraints Used in Cover:286
GRASP Method!
Number cuts repeat: 0
value: 105.774151
Number Constraints Used in Cover:303
GRASP Method!
Number cuts repeat: 0
value: 105.774151
Number Constraints Used in Cover:315
GRASP Method!
Number cuts repeat: 0
value: 105.774151
Number Constraints Used in Cover:325
GRASP Method!
Number cuts repeat: 0
value: 105.774151
Number Constraints Used in Cover:338
GRASP Method!
Number cuts repeat: 0
value: 105.774151
Number Constraints Used in Cover:353
GRASP Method!
Number cuts repeat: 0
value: 105.774151
Number Constraints Used in Cover:364
GRASP Method!
Number cuts repeat: 0
value: 105.774151
Number Constraints Used in Cover:379
GRASP Method!
Number cuts repeat: 0
value: 105.774151
Number Constraints Used in Cover:394
GRASP Method!
Number cuts repeat: 0
value: 105.774151
Number Constraints Used in Cover:410
GRASP Method!
Number cuts repeat: 0
value: 105.774151
Number Constraints Used in Cover:424
GRASP Method!
Number cuts repeat: 0
value: 105.774151
Number Constraints Used in Cover:445
GRASP Method!
Number cuts repeat: 0
value: 105.774151
Number Constraints Used in Cover:460
GRASP Method!
Number cuts repeat: 0
value: 105.774151
Number Constraints Used in Cover:475
GRASP Method!
Number cuts repeat: 0
value: 105.774151
Number Constraints Used in Cover:492
GRASP Method!
Number cuts repeat: 0
value: 105.774151
Number Constraints Used in Cover:509
GRASP Method!
Number cuts repeat: 0
value: 105.774151
Number Constraints Used in Cover:513
GRASP Method!
Number cuts repeat: 0
value: 105.774151
Number Constraints Used in Cover:531
GRASP Method!
Number cuts repeat: 0
value: 105.774151
Number Constraints Used in Cover:543
GRASP Method!
Number cuts repeat: 0
value: 105.774151
Number Constraints Used in Cover:552
GRASP Method!
Number cuts repeat: 0
value: 105.774151
Number Constraints Used in Cover:565
GRASP Method!
Number cuts repeat: 0
value: 105.774151
Number Constraints Used in Cover:584
GRASP Method!
Number cuts repeat: 0
value: 105.774151
Number Constraints Used in Cover:596
GRASP Method!
Number cuts repeat: 0
value: 105.774151
Number Constraints Used in Cover:620
GRASP Method!
Number cuts repeat: 0
value: 105.774151
Number Constraints Used in Cover:632
GRASP Method!
Number cuts repeat: 0
value: 105.774151
Number Constraints Used in Cover:652
GRASP Method!
Number cuts repeat: 0
value: 105.774151
Number Constraints Used in Cover:666
GRASP Method!
Number cuts repeat: 0
value: 105.774151
Number Constraints Used in Cover:691
GRASP Method!
Number cuts repeat: 0
value: 105.774151
Number Constraints Used in Cover:706
GRASP Method!
Number cuts repeat: 0
value: 105.774151
Number Constraints Used in Cover:714
GRASP Method!
Number cuts repeat: 0
value: 105.774151
Number Constraints Used in Cover:726
GRASP Method!
Number cuts repeat: 0
value: 105.774151
Number Constraints Used in Cover:751
GRASP Method!
Number cuts repeat: 0
value: 105.774151
Number Constraints Used in Cover:771
GRASP Method!
Number cuts repeat: 0
value: 105.774151
Number Constraints Used in Cover:790
GRASP Method!
Number cuts repeat: 0
value: 105.774151
Number Constraints Used in Cover:807
GRASP Method!
Number cuts repeat: 0
value: 105.774151
Number Constraints Used in Cover:826
GRASP Method!
Number cuts repeat: 0
value: 105.774151
Number Constraints Used in Cover:844
GRASP Method!
Number cuts repeat: 0
value: 105.774151
Number Cuts Final: 856
